
Gurobi 7.0.1 (win64, Python) logging started 11/07/17 09:39:37

Changed value of parameter MIPGap to 0.05
   Prev: 0.0001  Min: 0.0  Max: 1e+100  Default: 0.0001
Changed value of parameter TimeLimit to 1800.0
   Prev: 1e+100  Min: 0.0  Max: 1e+100  Default: 1e+100
Changed value of parameter Method to 2
   Prev: -1  Min: -1  Max: 4  Default: -1
Changed value of parameter MIPFocus to 1
   Prev: 0  Min: 0  Max: 3  Default: 0
Optimize a model with 3576 rows, 5214 columns and 10428 nonzeros
Variable types: 0 continuous, 5214 integer (5214 binary)
Coefficient statistics:
  Matrix range     [1e+00, 5e+00]
  Objective range  [1e+00, 1e+00]
  Bounds range     [1e+00, 1e+00]
  RHS range        [8e+01, 8e+01]
Found heuristic solution: objective 0
Presolve removed 3527 rows and 4632 columns
Presolve time: 0.03s
Presolved: 49 rows, 582 columns, 1074 nonzeros
Found heuristic solution: objective -1572.000000
Variable types: 0 continuous, 582 integer (484 binary)
Presolved: 49 rows, 582 columns, 1074 nonzeros

Root barrier log...

Ordering time: 0.00s

Barrier statistics:
 AA' NZ     : 4.740e+02
 Factor NZ  : 1.173e+03
 Factor Ops : 3.616e+04 (less than 1 second per iteration)
 Threads    : 1

                  Objective                Residual
Iter       Primal          Dual         Primal    Dual     Compl     Time
   0  -2.25511180e+03 -2.52041499e+03  1.11e+01 4.44e-16  1.97e+00     0s
   1  -1.65094269e+03 -1.98844312e+03  1.02e+00 2.66e-01  4.21e-01     0s
   2  -1.63154817e+03 -1.68931283e+03  3.99e-02 2.16e-02  5.17e-02     0s
   3  -1.64116719e+03 -1.65645916e+03  1.48e-02 1.78e-15  1.40e-02     0s
   4  -1.64641433e+03 -1.65087328e+03  4.58e-03 8.88e-16  4.12e-03     0s
   5  -1.64936315e+03 -1.65021206e+03  1.82e-04 8.88e-16  7.21e-04     0s
   6  -1.64956101e+03 -1.64959804e+03  2.06e-06 8.88e-16  3.09e-05     0s
   7  -1.64956666e+03 -1.64956667e+03  0.00e+00 8.88e-16  8.87e-09     0s

Barrier solved model in 7 iterations and 0.20 seconds
Optimal objective -1.64956666e+03


Root relaxation: objective -1.649567e+03, 36 iterations, 0.14 seconds

    Nodes    |    Current Node    |     Objective Bounds      |     Work
 Expl Unexpl |  Obj  Depth IntInf | Incumbent    BestBd   Gap | It/Node Time

     0     0 -1649.5667    0   25 -1572.0000 -1649.5667  4.93%     -    0s

Explored 0 nodes (55 simplex iterations) in 0.55 seconds
Thread count was 8 (of 8 available processors)

Solution count 2: -1572 -536 
Pool objective bound -1649

Optimal solution found (tolerance 5.00e-02)
Best objective -1.572000000000e+03, best bound -1.649000000000e+03, gap 4.8982%
Changed value of parameter MIPGap to 0.05
   Prev: 0.0001  Min: 0.0  Max: 1e+100  Default: 0.0001
Changed value of parameter TimeLimit to 1800.0
   Prev: 1e+100  Min: 0.0  Max: 1e+100  Default: 1e+100
Changed value of parameter Method to 2
   Prev: -1  Min: -1  Max: 4  Default: -1
Changed value of parameter MIPFocus to 1
   Prev: 0  Min: 0  Max: 3  Default: 0
Optimize a model with 3576 rows, 5214 columns and 10428 nonzeros
Variable types: 0 continuous, 5214 integer (5214 binary)
Coefficient statistics:
  Matrix range     [1e+00, 5e+00]
  Objective range  [1e+00, 1e+00]
  Bounds range     [1e+00, 1e+00]
  RHS range        [8e+01, 8e+01]
Found heuristic solution: objective 0
Presolve removed 3527 rows and 4175 columns
Presolve time: 0.01s
Presolved: 49 rows, 1039 columns, 1571 nonzeros
Found heuristic solution: objective -1551.344850
Variable types: 0 continuous, 1039 integer (850 binary)
Presolved: 49 rows, 1039 columns, 1571 nonzeros

Root barrier log...

Ordering time: 0.00s

Barrier statistics:
 AA' NZ     : 4.740e+02
 Factor NZ  : 1.173e+03
 Factor Ops : 3.616e+04 (less than 1 second per iteration)
 Threads    : 1

                  Objective                Residual
Iter       Primal          Dual         Primal    Dual     Compl     Time
   0  -2.90091523e+03 -3.08227292e+03  1.74e+01 4.44e-16  2.12e+00     0s
   1  -1.66986568e+03 -2.32487156e+03  1.43e+00 3.98e-01  4.57e-01     0s
   2  -1.61706267e+03 -1.73821326e+03  4.94e-02 4.29e-02  6.14e-02     0s
   3  -1.63891597e+03 -1.66701776e+03  1.20e-02 1.33e-15  1.42e-02     0s
   4  -1.64359932e+03 -1.66241595e+03  6.79e-03 8.88e-16  9.44e-03     0s
   5  -1.64798606e+03 -1.65382232e+03  2.42e-03 8.88e-16  2.96e-03     0s
   6  -1.65054811e+03 -1.65203320e+03  1.10e-04 8.88e-16  7.10e-04     0s
   7  -1.65076613e+03 -1.65084853e+03  0.00e+00 8.88e-16  3.89e-05     0s
   8  -1.65077053e+03 -1.65078912e+03  0.00e+00 4.47e-06  8.76e-06     0s
   9  -1.65077252e+03 -1.65077678e+03  0.00e+00 1.78e-15  2.01e-06     0s
  10  -1.65077318e+03 -1.65077341e+03  0.00e+00 1.78e-15  1.09e-07     0s
  11  -1.65077324e+03 -1.65077324e+03  0.00e+00 1.78e-15  4.49e-10     0s

Barrier solved model in 11 iterations and 0.06 seconds
Optimal objective -1.65077324e+03


Root relaxation: objective -1.650773e+03, 39 iterations, 0.04 seconds

    Nodes    |    Current Node    |     Objective Bounds      |     Work
 Expl Unexpl |  Obj  Depth IntInf | Incumbent    BestBd   Gap | It/Node Time

     0     0 -1650.7732    0   22 -1551.3449 -1650.7732  6.41%     -    0s
H    0     0                    -1642.202900 -1650.7732  0.52%     -    0s

Explored 0 nodes (39 simplex iterations) in 0.09 seconds
Thread count was 8 (of 8 available processors)

Solution count 3: -1642.2 -1551.34 -426.34 
Pool objective bound -1650.77

Optimal solution found (tolerance 5.00e-02)
Best objective -1.642202900000e+03, best bound -1.650773238333e+03, gap 0.5219%
Changed value of parameter MIPGap to 0.05
   Prev: 0.0001  Min: 0.0  Max: 1e+100  Default: 0.0001
Changed value of parameter TimeLimit to 1800.0
   Prev: 1e+100  Min: 0.0  Max: 1e+100  Default: 1e+100
Changed value of parameter Method to 2
   Prev: -1  Min: -1  Max: 4  Default: -1
Changed value of parameter MIPFocus to 1
   Prev: 0  Min: 0  Max: 3  Default: 0
Optimize a model with 3576 rows, 5214 columns and 10428 nonzeros
Variable types: 0 continuous, 5214 integer (5214 binary)
Coefficient statistics:
  Matrix range     [1e+00, 5e+00]
  Objective range  [1e+00, 1e+00]
  Bounds range     [1e+00, 1e+00]
  RHS range        [8e+01, 8e+01]
Found heuristic solution: objective 0
Presolve removed 3527 rows and 4175 columns
Presolve time: 0.01s
Presolved: 49 rows, 1039 columns, 1571 nonzeros
Found heuristic solution: objective -1552.689700
Variable types: 0 continuous, 1039 integer (850 binary)
Presolved: 49 rows, 1039 columns, 1571 nonzeros

Root barrier log...

Ordering time: 0.00s

Barrier statistics:
 AA' NZ     : 4.740e+02
 Factor NZ  : 1.173e+03
 Factor Ops : 3.616e+04 (less than 1 second per iteration)
 Threads    : 1

                  Objective                Residual
Iter       Primal          Dual         Primal    Dual     Compl     Time
   0  -2.90307338e+03 -3.08119448e+03  1.74e+01 8.88e-16  2.12e+00     0s
   1  -1.67133048e+03 -2.32483499e+03  1.43e+00 3.97e-01  4.56e-01     0s
   2  -1.61836875e+03 -1.73909130e+03  4.96e-02 4.26e-02  6.12e-02     0s
   3  -1.64011549e+03 -1.66822907e+03  1.21e-02 4.00e-15  1.43e-02     0s
   4  -1.64479085e+03 -1.66363920e+03  6.87e-03 3.11e-15  9.46e-03     0s
   5  -1.64916533e+03 -1.65504562e+03  2.46e-03 8.88e-16  2.98e-03     0s
   6  -1.65174323e+03 -1.65327492e+03  1.15e-04 8.88e-16  7.33e-04     0s
   7  -1.65197019e+03 -1.65210000e+03  0.00e+00 1.33e-15  6.12e-05     0s
   8  -1.65197716e+03 -1.65200985e+03  0.00e+00 1.33e-15  1.54e-05     0s
   9  -1.65197902e+03 -1.65198599e+03  0.00e+00 1.78e-15  3.28e-06     0s
  10  -1.65197976e+03 -1.65198003e+03  0.00e+00 1.78e-15  1.28e-07     0s
  11  -1.65197981e+03 -1.65197981e+03  0.00e+00 1.69e-11  3.01e-10     0s

Barrier solved model in 11 iterations and 0.06 seconds
Optimal objective -1.65197981e+03


Root relaxation: objective -1.651980e+03, 25 iterations, 0.04 seconds

    Nodes    |    Current Node    |     Objective Bounds      |     Work
 Expl Unexpl |  Obj  Depth IntInf | Incumbent    BestBd   Gap | It/Node Time

     0     0 -1651.9798    0   22 -1552.6897 -1651.9798  6.39%     -    0s
H    0     0                    -1643.405800 -1651.9798  0.52%     -    0s

Explored 0 nodes (25 simplex iterations) in 0.08 seconds
Thread count was 8 (of 8 available processors)

Solution count 3: -1643.41 -1552.69 -426.68 
Pool objective bound -1651.98

Optimal solution found (tolerance 5.00e-02)
Best objective -1.643405800000e+03, best bound -1.651979810000e+03, gap 0.5217%
Changed value of parameter MIPGap to 0.05
   Prev: 0.0001  Min: 0.0  Max: 1e+100  Default: 0.0001
Changed value of parameter TimeLimit to 1800.0
   Prev: 1e+100  Min: 0.0  Max: 1e+100  Default: 1e+100
Changed value of parameter Method to 2
   Prev: -1  Min: -1  Max: 4  Default: -1
Changed value of parameter MIPFocus to 1
   Prev: 0  Min: 0  Max: 3  Default: 0
Optimize a model with 3576 rows, 5214 columns and 10428 nonzeros
Variable types: 0 continuous, 5214 integer (5214 binary)
Coefficient statistics:
  Matrix range     [1e+00, 5e+00]
  Objective range  [1e+00, 1e+00]
  Bounds range     [1e+00, 1e+00]
  RHS range        [8e+01, 8e+01]
Found heuristic solution: objective 0
Presolve removed 3527 rows and 4632 columns
Presolve time: 0.01s
Presolved: 49 rows, 582 columns, 1074 nonzeros
Found heuristic solution: objective -1572.000000
Variable types: 0 continuous, 582 integer (484 binary)
Presolved: 49 rows, 582 columns, 1074 nonzeros

Root barrier log...

Ordering time: 0.00s

Barrier statistics:
 AA' NZ     : 4.740e+02
 Factor NZ  : 1.173e+03
 Factor Ops : 3.616e+04 (less than 1 second per iteration)
 Threads    : 1

                  Objective                Residual
Iter       Primal          Dual         Primal    Dual     Compl     Time
   0  -2.25511180e+03 -2.52041499e+03  1.11e+01 4.44e-16  1.97e+00     0s
   1  -1.65094269e+03 -1.98844312e+03  1.02e+00 2.66e-01  4.21e-01     0s
   2  -1.63154817e+03 -1.68931283e+03  3.99e-02 2.16e-02  5.17e-02     0s
   3  -1.64116719e+03 -1.65645916e+03  1.48e-02 1.78e-15  1.40e-02     0s
   4  -1.64641433e+03 -1.65087328e+03  4.58e-03 8.88e-16  4.12e-03     0s
   5  -1.64936315e+03 -1.65021206e+03  1.82e-04 8.88e-16  7.21e-04     0s
   6  -1.64956101e+03 -1.64959804e+03  2.06e-06 8.88e-16  3.09e-05     0s
   7  -1.64956666e+03 -1.64956667e+03  0.00e+00 8.88e-16  8.87e-09     0s

Barrier solved model in 7 iterations and 0.05 seconds
Optimal objective -1.64956666e+03


Root relaxation: objective -1.649567e+03, 36 iterations, 0.04 seconds

    Nodes    |    Current Node    |     Objective Bounds      |     Work
 Expl Unexpl |  Obj  Depth IntInf | Incumbent    BestBd   Gap | It/Node Time

     0     0 -1649.5667    0   25 -1572.0000 -1649.5667  4.93%     -    0s

Explored 0 nodes (55 simplex iterations) in 0.08 seconds
Thread count was 8 (of 8 available processors)

Solution count 2: -1572 -536 
Pool objective bound -1649

Optimal solution found (tolerance 5.00e-02)
Best objective -1.572000000000e+03, best bound -1.649000000000e+03, gap 4.8982%
Changed value of parameter MIPGap to 0.05
   Prev: 0.0001  Min: 0.0  Max: 1e+100  Default: 0.0001
Changed value of parameter TimeLimit to 1800.0
   Prev: 1e+100  Min: 0.0  Max: 1e+100  Default: 1e+100
Changed value of parameter Method to 2
   Prev: -1  Min: -1  Max: 4  Default: -1
Changed value of parameter MIPFocus to 1
   Prev: 0  Min: 0  Max: 3  Default: 0
Optimize a model with 3576 rows, 5214 columns and 10428 nonzeros
Variable types: 0 continuous, 5214 integer (5214 binary)
Coefficient statistics:
  Matrix range     [1e+00, 5e+00]
  Objective range  [1e+00, 1e+00]
  Bounds range     [1e+00, 1e+00]
  RHS range        [8e+01, 8e+01]
Found heuristic solution: objective 0
Presolve removed 3527 rows and 4175 columns
Presolve time: 0.01s
Presolved: 49 rows, 1039 columns, 1571 nonzeros
Found heuristic solution: objective -1551.344850
Variable types: 0 continuous, 1039 integer (850 binary)
Presolved: 49 rows, 1039 columns, 1571 nonzeros

Root barrier log...

Ordering time: 0.00s

Barrier statistics:
 AA' NZ     : 4.740e+02
 Factor NZ  : 1.173e+03
 Factor Ops : 3.616e+04 (less than 1 second per iteration)
 Threads    : 1

                  Objective                Residual
Iter       Primal          Dual         Primal    Dual     Compl     Time
   0  -2.90091523e+03 -3.08227292e+03  1.74e+01 4.44e-16  2.12e+00     0s
   1  -1.66986568e+03 -2.32487156e+03  1.43e+00 3.98e-01  4.57e-01     0s
   2  -1.61706267e+03 -1.73821326e+03  4.94e-02 4.29e-02  6.14e-02     0s
   3  -1.63891597e+03 -1.66701776e+03  1.20e-02 1.33e-15  1.42e-02     0s
   4  -1.64359932e+03 -1.66241595e+03  6.79e-03 8.88e-16  9.44e-03     0s
   5  -1.64798606e+03 -1.65382232e+03  2.42e-03 8.88e-16  2.96e-03     0s
   6  -1.65054811e+03 -1.65203320e+03  1.10e-04 8.88e-16  7.10e-04     0s
   7  -1.65076613e+03 -1.65084853e+03  0.00e+00 8.88e-16  3.89e-05     0s
   8  -1.65077053e+03 -1.65078912e+03  0.00e+00 4.47e-06  8.76e-06     0s
   9  -1.65077252e+03 -1.65077678e+03  0.00e+00 1.78e-15  2.01e-06     0s
  10  -1.65077318e+03 -1.65077341e+03  0.00e+00 1.78e-15  1.09e-07     0s
  11  -1.65077324e+03 -1.65077324e+03  0.00e+00 1.78e-15  4.49e-10     0s

Barrier solved model in 11 iterations and 0.06 seconds
Optimal objective -1.65077324e+03


Root relaxation: objective -1.650773e+03, 39 iterations, 0.04 seconds

    Nodes    |    Current Node    |     Objective Bounds      |     Work
 Expl Unexpl |  Obj  Depth IntInf | Incumbent    BestBd   Gap | It/Node Time

     0     0 -1650.7732    0   22 -1551.3449 -1650.7732  6.41%     -    0s
H    0     0                    -1642.202900 -1650.7732  0.52%     -    0s

Explored 0 nodes (39 simplex iterations) in 0.09 seconds
Thread count was 8 (of 8 available processors)

Solution count 3: -1642.2 -1551.34 -426.34 
Pool objective bound -1650.77

Optimal solution found (tolerance 5.00e-02)
Best objective -1.642202900000e+03, best bound -1.650773238333e+03, gap 0.5219%
Changed value of parameter MIPGap to 0.05
   Prev: 0.0001  Min: 0.0  Max: 1e+100  Default: 0.0001
Changed value of parameter TimeLimit to 1800.0
   Prev: 1e+100  Min: 0.0  Max: 1e+100  Default: 1e+100
Changed value of parameter Method to 2
   Prev: -1  Min: -1  Max: 4  Default: -1
Changed value of parameter MIPFocus to 1
   Prev: 0  Min: 0  Max: 3  Default: 0
Optimize a model with 3576 rows, 5214 columns and 10428 nonzeros
Variable types: 0 continuous, 5214 integer (5214 binary)
Coefficient statistics:
  Matrix range     [1e+00, 5e+00]
  Objective range  [1e+00, 1e+00]
  Bounds range     [1e+00, 1e+00]
  RHS range        [8e+01, 8e+01]
Found heuristic solution: objective 0
Presolve removed 3527 rows and 4175 columns
Presolve time: 0.01s
Presolved: 49 rows, 1039 columns, 1571 nonzeros
Found heuristic solution: objective -1552.689700
Variable types: 0 continuous, 1039 integer (850 binary)
Presolved: 49 rows, 1039 columns, 1571 nonzeros

Root barrier log...

Ordering time: 0.00s

Barrier statistics:
 AA' NZ     : 4.740e+02
 Factor NZ  : 1.173e+03
 Factor Ops : 3.616e+04 (less than 1 second per iteration)
 Threads    : 1

                  Objective                Residual
Iter       Primal          Dual         Primal    Dual     Compl     Time
   0  -2.90307338e+03 -3.08119448e+03  1.74e+01 8.88e-16  2.12e+00     0s
   1  -1.67133048e+03 -2.32483499e+03  1.43e+00 3.97e-01  4.56e-01     0s
   2  -1.61836875e+03 -1.73909130e+03  4.96e-02 4.26e-02  6.12e-02     0s
   3  -1.64011549e+03 -1.66822907e+03  1.21e-02 4.00e-15  1.43e-02     0s
   4  -1.64479085e+03 -1.66363920e+03  6.87e-03 3.11e-15  9.46e-03     0s
   5  -1.64916533e+03 -1.65504562e+03  2.46e-03 8.88e-16  2.98e-03     0s
   6  -1.65174323e+03 -1.65327492e+03  1.15e-04 8.88e-16  7.33e-04     0s
   7  -1.65197019e+03 -1.65210000e+03  0.00e+00 1.33e-15  6.12e-05     0s
   8  -1.65197716e+03 -1.65200985e+03  0.00e+00 1.33e-15  1.54e-05     0s
   9  -1.65197902e+03 -1.65198599e+03  0.00e+00 1.78e-15  3.28e-06     0s
  10  -1.65197976e+03 -1.65198003e+03  0.00e+00 1.78e-15  1.28e-07     0s
  11  -1.65197981e+03 -1.65197981e+03  0.00e+00 1.69e-11  3.01e-10     0s

Barrier solved model in 11 iterations and 0.06 seconds
Optimal objective -1.65197981e+03


Root relaxation: objective -1.651980e+03, 25 iterations, 0.04 seconds

    Nodes    |    Current Node    |     Objective Bounds      |     Work
 Expl Unexpl |  Obj  Depth IntInf | Incumbent    BestBd   Gap | It/Node Time

     0     0 -1651.9798    0   22 -1552.6897 -1651.9798  6.39%     -    0s
H    0     0                    -1643.405800 -1651.9798  0.52%     -    0s

Explored 0 nodes (25 simplex iterations) in 0.08 seconds
Thread count was 8 (of 8 available processors)

Solution count 3: -1643.41 -1552.69 -426.68 
Pool objective bound -1651.98

Optimal solution found (tolerance 5.00e-02)
Best objective -1.643405800000e+03, best bound -1.651979810000e+03, gap 0.5217%
Changed value of parameter MIPGap to 0.05
   Prev: 0.0001  Min: 0.0  Max: 1e+100  Default: 0.0001
Changed value of parameter TimeLimit to 1800.0
   Prev: 1e+100  Min: 0.0  Max: 1e+100  Default: 1e+100
Changed value of parameter Method to 2
   Prev: -1  Min: -1  Max: 4  Default: -1
Changed value of parameter MIPFocus to 1
   Prev: 0  Min: 0  Max: 3  Default: 0
Optimize a model with 3576 rows, 5214 columns and 10428 nonzeros
Variable types: 0 continuous, 5214 integer (5214 binary)
Coefficient statistics:
  Matrix range     [1e+00, 5e+00]
  Objective range  [1e+00, 1e+00]
  Bounds range     [1e+00, 1e+00]
  RHS range        [8e+01, 8e+01]
Found heuristic solution: objective 0
Presolve removed 3527 rows and 4175 columns
Presolve time: 0.01s
Presolved: 49 rows, 1039 columns, 1571 nonzeros
Found heuristic solution: objective -1555.379400
Variable types: 0 continuous, 1039 integer (850 binary)
Presolved: 49 rows, 1039 columns, 1571 nonzeros

Root barrier log...

Ordering time: 0.00s

Barrier statistics:
 AA' NZ     : 4.740e+02
 Factor NZ  : 1.173e+03
 Factor Ops : 3.616e+04 (less than 1 second per iteration)
 Threads    : 1

                  Objective                Residual
Iter       Primal          Dual         Primal    Dual     Compl     Time
   0  -2.90738947e+03 -3.07903760e+03  1.74e+01 8.88e-16  2.11e+00     0s
   1  -1.67426157e+03 -2.32476245e+03  1.43e+00 3.95e-01  4.54e-01     0s
   2  -1.62098229e+03 -1.74084530e+03  5.00e-02 4.21e-02  6.08e-02     0s
   3  -1.64251511e+03 -1.67064089e+03  1.23e-02 7.11e-15  1.43e-02     0s
   4  -1.64718482e+03 -1.66607240e+03  7.01e-03 4.88e-15  9.49e-03     0s
   5  -1.65162601e+03 -1.65747055e+03  2.52e-03 8.88e-16  2.97e-03     0s
   6  -1.65415880e+03 -1.65567953e+03  9.85e-05 8.88e-16  7.26e-04     0s
   7  -1.65437994e+03 -1.65453305e+03  0.00e+00 1.33e-15  7.21e-05     0s
   8  -1.65438963e+03 -1.65443917e+03  0.00e+00 9.16e-06  2.33e-05     0s
   9  -1.65439168e+03 -1.65440392e+03  0.00e+00 3.85e-06  5.76e-06     0s
  10  -1.65439289e+03 -1.65439337e+03  0.00e+00 1.78e-15  2.26e-07     0s
  11  -1.65439295e+03 -1.65439295e+03  0.00e+00 8.88e-16  6.51e-11     0s

Barrier solved model in 11 iterations and 0.07 seconds
Optimal objective -1.65439295e+03


Root relaxation: objective -1.654393e+03, 24 iterations, 0.05 seconds

    Nodes    |    Current Node    |     Objective Bounds      |     Work
 Expl Unexpl |  Obj  Depth IntInf | Incumbent    BestBd   Gap | It/Node Time

     0     0 -1654.3930    0   22 -1555.3794 -1654.3930  6.37%     -    0s
H    0     0                    -1645.811600 -1654.3930  0.52%     -    0s

Explored 0 nodes (24 simplex iterations) in 0.09 seconds
Thread count was 8 (of 8 available processors)

Solution count 3: -1645.81 -1555.38 -427.36 
Pool objective bound -1654.39

Optimal solution found (tolerance 5.00e-02)
Best objective -1.645811600000e+03, best bound -1.654392953333e+03, gap 0.5214%
Changed value of parameter MIPGap to 0.05
   Prev: 0.0001  Min: 0.0  Max: 1e+100  Default: 0.0001
Changed value of parameter TimeLimit to 1800.0
   Prev: 1e+100  Min: 0.0  Max: 1e+100  Default: 1e+100
Changed value of parameter Method to 2
   Prev: -1  Min: -1  Max: 4  Default: -1
Changed value of parameter MIPFocus to 1
   Prev: 0  Min: 0  Max: 3  Default: 0
Optimize a model with 3576 rows, 5214 columns and 10428 nonzeros
Variable types: 0 continuous, 5214 integer (5214 binary)
Coefficient statistics:
  Matrix range     [1e+00, 5e+00]
  Objective range  [1e+00, 1e+00]
  Bounds range     [1e+00, 1e+00]
  RHS range        [8e+01, 8e+01]
Found heuristic solution: objective 0
Presolve removed 3527 rows and 4175 columns
Presolve time: 0.01s
Presolved: 49 rows, 1039 columns, 1571 nonzeros
Found heuristic solution: objective -1560.758800
Variable types: 0 continuous, 1039 integer (850 binary)
Presolved: 49 rows, 1039 columns, 1571 nonzeros

Root barrier log...

Ordering time: 0.00s

Barrier statistics:
 AA' NZ     : 4.740e+02
 Factor NZ  : 1.173e+03
 Factor Ops : 3.616e+04 (less than 1 second per iteration)
 Threads    : 1

                  Objective                Residual
Iter       Primal          Dual         Primal    Dual     Compl     Time
   0  -2.91602079e+03 -3.07472385e+03  1.74e+01 4.44e-16  2.10e+00     0s
   1  -1.68012980e+03 -2.32461980e+03  1.43e+00 3.91e-01  4.51e-01     0s
   2  -1.62621512e+03 -1.74522494e+03  5.07e-02 4.17e-02  6.05e-02     0s
   3  -1.64733862e+03 -1.67554862e+03  1.28e-02 2.22e-15  1.43e-02     0s
   4  -1.65199467e+03 -1.67098009e+03  7.26e-03 1.33e-15  9.55e-03     0s
   5  -1.65645625e+03 -1.66237107e+03  2.58e-03 1.78e-15  3.00e-03     0s
   6  -1.65890965e+03 -1.66058920e+03  1.58e-04 8.88e-16  8.06e-04     0s
   7  -1.65919923e+03 -1.65940309e+03  0.00e+00 1.33e-15  9.61e-05     0s
   8  -1.65921428e+03 -1.65926313e+03  0.00e+00 9.04e-06  2.30e-05     0s
   9  -1.65921822e+03 -1.65923120e+03  0.00e+00 4.24e-06  6.11e-06     0s
  10  -1.65921922e+03 -1.65921926e+03  0.00e+00 1.78e-15  1.84e-08     0s
  11  -1.65921924e+03 -1.65921924e+03  0.00e+00 1.33e-15  1.54e-13     0s

Barrier solved model in 11 iterations and 0.06 seconds
Optimal objective -1.65921924e+03


Root relaxation: objective -1.659219e+03, 21 iterations, 0.05 seconds

    Nodes    |    Current Node    |     Objective Bounds      |     Work
 Expl Unexpl |  Obj  Depth IntInf | Incumbent    BestBd   Gap | It/Node Time

     0     0 -1659.2192    0   22 -1560.7588 -1659.2192  6.31%     -    0s
H    0     0                    -1650.623200 -1659.2192  0.52%     -    0s

Explored 0 nodes (21 simplex iterations) in 0.09 seconds
Thread count was 8 (of 8 available processors)

Solution count 3: -1650.62 -1560.76 -428.72 
Pool objective bound -1659.22

Optimal solution found (tolerance 5.00e-02)
Best objective -1.650623200000e+03, best bound -1.659219240000e+03, gap 0.5208%
